unsat
(error "line 1389 column 21: model is not available")
(error "line 1390 column 21: model is not available")
(error "line 1391 column 21: model is not available")
(error "line 1392 column 21: model is not available")
(error "line 1393 column 21: model is not available")
(error "line 1394 column 21: model is not available")
(error "line 1395 column 21: model is not available")
(error "line 1396 column 21: model is not available")
(error "line 1397 column 21: model is not available")
(error "line 1398 column 22: model is not available")
(error "line 1399 column 22: model is not available")
(error "line 1400 column 22: model is not available")
(error "line 1401 column 22: model is not available")
(error "line 1402 column 22: model is not available")
(error "line 1403 column 22: model is not available")
(error "line 1404 column 22: model is not available")
(error "line 1405 column 22: model is not available")
(error "line 1407 column 18: model is not available")
(error "line 1408 column 18: model is not available")
(error "line 1409 column 18: model is not available")
(error "line 1410 column 18: model is not available")
(error "line 1411 column 18: model is not available")
(error "line 1412 column 18: model is not available")
(error "line 1413 column 18: model is not available")
(error "line 1414 column 18: model is not available")
(error "line 1415 column 18: model is not available")
(error "line 1416 column 19: model is not available")
(error "line 1417 column 19: model is not available")
(error "line 1418 column 19: model is not available")
(error "line 1419 column 19: model is not available")
(error "line 1420 column 19: model is not available")
(error "line 1421 column 19: model is not available")
(error "line 1422 column 19: model is not available")
(error "line 1423 column 19: model is not available")
(error "line 1424 column 19: model is not available")
(error "line 1426 column 18: model is not available")
(error "line 1427 column 18: model is not available")
(error "line 1428 column 18: model is not available")
(error "line 1429 column 18: model is not available")
(error "line 1430 column 18: model is not available")
(error "line 1431 column 18: model is not available")
(error "line 1432 column 18: model is not available")
(error "line 1433 column 18: model is not available")
(error "line 1434 column 18: model is not available")
(error "line 1435 column 19: model is not available")
(error "line 1436 column 19: model is not available")
(error "line 1437 column 19: model is not available")
(error "line 1438 column 19: model is not available")
(error "line 1439 column 19: model is not available")
(error "line 1440 column 19: model is not available")
(error "line 1441 column 19: model is not available")
(error "line 1442 column 19: model is not available")
(error "line 1443 column 19: model is not available")
(error "line 1445 column 22: model is not available")
(error "line 1446 column 22: model is not available")
(error "line 1447 column 22: model is not available")
(error "line 1448 column 22: model is not available")
(error "line 1449 column 22: model is not available")
(error "line 1450 column 22: model is not available")
(error "line 1451 column 22: model is not available")
(error "line 1452 column 22: model is not available")
(error "line 1453 column 22: model is not available")
(error "line 1454 column 23: model is not available")
(error "line 1455 column 23: model is not available")
(error "line 1456 column 23: model is not available")
(error "line 1457 column 23: model is not available")
(error "line 1458 column 23: model is not available")
(error "line 1459 column 23: model is not available")
(error "line 1460 column 23: model is not available")
(error "line 1461 column 23: model is not available")
(error "line 1463 column 22: model is not available")
(error "line 1464 column 22: model is not available")
(error "line 1465 column 22: model is not available")
(error "line 1466 column 22: model is not available")
(error "line 1467 column 22: model is not available")
(error "line 1468 column 22: model is not available")
(error "line 1469 column 22: model is not available")
(error "line 1470 column 22: model is not available")
(error "line 1471 column 22: model is not available")
(error "line 1472 column 23: model is not available")
(error "line 1473 column 23: model is not available")
(error "line 1474 column 23: model is not available")
(error "line 1475 column 23: model is not available")
(error "line 1476 column 23: model is not available")
(error "line 1477 column 23: model is not available")
(error "line 1478 column 23: model is not available")
(error "line 1479 column 23: model is not available")
(error "line 1481 column 20: model is not available")
(error "line 1482 column 20: model is not available")
(error "line 1483 column 20: model is not available")
(error "line 1484 column 20: model is not available")
(error "line 1485 column 20: model is not available")
(error "line 1486 column 20: model is not available")
(error "line 1487 column 20: model is not available")
(error "line 1488 column 20: model is not available")
(error "line 1489 column 20: model is not available")
(error "line 1490 column 21: model is not available")
(error "line 1491 column 21: model is not available")
(error "line 1492 column 21: model is not available")
(error "line 1493 column 21: model is not available")
(error "line 1494 column 21: model is not available")
(error "line 1495 column 21: model is not available")
(error "line 1496 column 21: model is not available")
(error "line 1497 column 21: model is not available")
(error "line 1499 column 20: model is not available")
(error "line 1500 column 20: model is not available")
(error "line 1501 column 20: model is not available")
(error "line 1502 column 20: model is not available")
(error "line 1503 column 20: model is not available")
(error "line 1504 column 20: model is not available")
(error "line 1505 column 20: model is not available")
(error "line 1506 column 20: model is not available")
(error "line 1507 column 20: model is not available")
(error "line 1508 column 21: model is not available")
(error "line 1509 column 21: model is not available")
(error "line 1510 column 21: model is not available")
(error "line 1511 column 21: model is not available")
(error "line 1512 column 21: model is not available")
(error "line 1513 column 21: model is not available")
(error "line 1514 column 21: model is not available")
(error "line 1515 column 21: model is not available")
(error "line 1517 column 21: model is not available")
(error "line 1518 column 21: model is not available")
(error "line 1519 column 21: model is not available")
(error "line 1520 column 21: model is not available")
(error "line 1521 column 21: model is not available")
(error "line 1522 column 21: model is not available")
(error "line 1523 column 21: model is not available")
(error "line 1524 column 21: model is not available")
(error "line 1525 column 21: model is not available")
(error "line 1526 column 22: model is not available")
(error "line 1527 column 22: model is not available")
(error "line 1528 column 22: model is not available")
(error "line 1529 column 22: model is not available")
(error "line 1530 column 22: model is not available")
(error "line 1531 column 22: model is not available")
(error "line 1532 column 22: model is not available")
(error "line 1533 column 22: model is not available")
(error "line 1534 column 23: model is not available")
